proyfinal/src/viki/013/experimentInOfficeAgust.take6.output/30dfc599-c147-42ec-b4ac-6803ad2266ca.als.dat
{'cnf.clauses': '118081',
 'cnf.totvars': '69608',
 'conflict literals': '31',
 'conflicts': '15',
 'decisions': '5255',
 'memused.mb': '18.91',
 'outcome': 'UNSAT',
 'propagations': '28312',
 'restarts': '1',
 'solver.msecs': 30,
 'task.msecs': 146}
