proyfinal/src/viki/013/experimentInOfficeAgust.take6.output/30dfc599-c147-42ec-b4ac-6803ad2266ca.als.out
Reading from standard input... Use '--help' for help.
============================[ Problem Statistics ]=============================
|                                                                             |
|  Number of variables:         69608                                         |
|  Number of clauses:          118081                                         |
|  Parse time:                   0.02 s                                       |
|                                                                             |
============================[ Search Statistics ]==============================
| Conflicts |          ORIGINAL         |          LEARNT          | Progress |
|           |    Vars  Clauses Literals |    Limit  Clauses Lit/Cl |          |
===============================================================================
===============================================================================
restarts              : 1
conflicts             : 15             (493 /sec)
decisions             : 5255           (0.00 % random) (172663 /sec)
propagations          : 28312          (930245 /sec)
conflict literals     : 31             (0.00 % deleted)
Memory used           : 18.91 MB
CPU time              : 0.030435 s

UNSATISFIABLE
